c 
c G(n,p) graph
c graph gen seed     : 28055
c number of vertices : 25
c max number of edges: 500
c edge probability   : 0.400000
c data structure     : sparse
c
c           Graph Stats
c number of vertices  : 25
c nonisolated vertices: 25
c number of edges     : 129
c edge density        : 0.430000
c max degree          : 14
c avg degree          : 10.32
c min degree          : 6
p col 25 129
e 1 24
e 1 20
e 1 18
e 1 16
e 1 15
e 1 14
e 1 12
e 1 11
e 1 9
e 1 8
e 1 5
e 1 3
e 2 23
e 2 22
e 2 21
e 2 16
e 2 11
e 2 10
e 2 9
e 2 8
e 2 5
e 2 4
e 2 3
e 3 24
e 3 23
e 3 19
e 3 18
e 3 16
e 3 14
e 3 9
e 3 8
e 3 4
e 4 25
e 4 22
e 4 17
e 4 14
e 4 13
e 4 11
e 4 9
e 4 8
e 4 7
e 4 6
e 4 5
e 5 25
e 5 19
e 5 17
e 5 14
e 5 9
e 5 7
e 6 25
e 6 24
e 6 23
e 6 22
e 6 21
e 6 20
e 6 19
e 6 18
e 6 15
e 6 13
e 6 11
e 6 9
e 7 25
e 7 18
e 7 17
e 7 15
e 7 9
e 8 25
e 8 24
e 8 21
e 8 19
e 8 17
e 8 11
e 8 10
e 8 9
e 9 24
e 9 22
e 9 16
e 9 15
e 10 25
e 10 24
e 10 23
e 10 15
e 10 14
e 11 24
e 11 22
e 11 21
e 11 20
e 11 19
e 11 15
e 11 13
e 12 24
e 12 23
e 12 16
e 12 15
e 12 14
e 13 23
e 13 22
e 13 18
e 13 17
e 13 16
e 13 15
e 13 14
e 14 25
e 14 23
e 14 21
e 14 20
e 14 17
e 14 16
e 14 15
e 15 16
e 16 25
e 16 23
e 16 20
e 16 18
e 16 17
e 17 25
e 17 24
e 17 23
e 18 25
e 18 22
e 18 21
e 19 25
e 19 23
e 19 20
e 20 23
e 20 22
e 20 21
e 22 25
e 23 24
